
Gurobi 10.0.1 (win64) logging started Sun Oct  8 10:18:37 2023

Set parameter LogFile to value "./results//log/FMS_11_deadline_heurFalse.log"
Gurobi Optimizer version 10.0.1 build v10.0.1rc0 (win64)

CPU model: AMD Ryzen 7 3700X 8-Core Processor, instruction set [SSE2|AVX|AVX2]
Thread count: 8 physical cores, 16 logical processors, using up to 16 threads

Optimize a model with 300 rows, 303 columns and 1118 nonzeros
Model fingerprint: 0x4bfc28e5
Model has 1 quadratic constraint
Variable types: 0 continuous, 303 integer (269 binary)
Coefficient statistics:
  Matrix range     [1e+00, 1e+07]
  QMatrix range    [1e+00, 1e+00]
  QLMatrix range   [1e+00, 4e+02]
  Objective range  [1e+00, 1e+00]
  Bounds range     [1e+00, 1e+00]
  RHS range        [1e+00, 3e+07]
Presolve removed 58 rows and 175 columns
Presolve time: 0.01s
Presolved: 255 rows, 139 columns, 1080 nonzeros
Variable types: 0 continuous, 139 integer (94 binary)
Found heuristic solution: objective 2.000094e+07

Root relaxation: objective 0.000000e+00, 44 iterations, 0.00 seconds (0.00 work units)

    Nodes    |    Current Node    |     Objective Bounds      |     Work
 Expl Unexpl |  Obj  Depth IntInf | Incumbent    BestBd   Gap | It/Node Time

     0     0    0.00000    0   14 2.0001e+07    0.00000   100%     -    0s
H    0     0                    5667.0000000    0.00000   100%     -    0s
H    0     0                    5666.0000000    0.00000   100%     -    0s
H    0     0                    4601.0000000    0.00000   100%     -    0s
     0     0    0.00000    0   29 4601.00000    0.00000   100%     -    0s
H    0     0                    4412.0000000    0.00000   100%     -    0s
H    0     0                    3968.0000000    0.00000   100%     -    0s
     0     0    0.00000    0   25 3968.00000    0.00000   100%     -    0s
     0     0    0.00000    0   19 3968.00000    0.00000   100%     -    0s
     0     0    0.00000    0   16 3968.00000    0.00000   100%     -    0s
     0     0  267.51956    0   36 3968.00000  267.51956  93.3%     -    0s
     0     0 1298.00321    0   40 3968.00000 1298.00321  67.3%     -    0s
     0     0 1609.28772    0   33 3968.00000 1609.28772  59.4%     -    0s
     0     0 1609.37678    0   39 3968.00000 1609.37678  59.4%     -    0s
     0     0 1614.41651    0   38 3968.00000 1614.41651  59.3%     -    0s
     0     0 1614.59209    0   42 3968.00000 1614.59209  59.3%     -    0s
     0     0 1615.07028    0   37 3968.00000 1615.07028  59.3%     -    0s
     0     0 1615.18784    0   41 3968.00000 1615.18784  59.3%     -    0s
     0     0 1616.42723    0   39 3968.00000 1616.42723  59.3%     -    0s
     0     0 1616.42723    0   34 3968.00000 1616.42723  59.3%     -    0s
H    0     0                    3930.0000000 1616.42723  58.9%     -    0s
H    0     0                    3929.0000000 1616.42723  58.9%     -    0s
H    0     0                    3284.0000000 1616.42723  50.8%     -    0s
     0     2 1617.05013    0   29 3284.00000 1617.05013  50.8%     -    0s
H   31    32                    3283.0000000 1632.40148  50.3%   7.3    0s
H   33    32                    3271.0000000 1632.40148  50.1%   7.5    0s
H   34    32                    3248.0000000 1632.40148  49.7%   7.5    0s
H  178   138                    3220.0000000 1632.40148  49.3%   6.2    0s
H 5531  1391                    3202.0000000 1858.25848  42.0%   1.3    1s

Cutting planes:
  Learned: 3
  Gomory: 4
  Cover: 4
  Implied bound: 5
  Clique: 1
  Flow cover: 9
  RLT: 3

Explored 10310 nodes (64569 simplex iterations) in 1.84 seconds (0.56 work units)
Thread count was 16 (of 16 available processors)

Solution count 10: 3202 3220 3248 ... 4412

Optimal solution found (tolerance 1.00e-04)
Best objective 3.202000000000e+03, best bound 3.202000000000e+03, gap 0.0000%
Warning: constraint name "precedence between 0,0 to 0,1 if x_[0,0,0,1,3]=0, i.e. 0,1 before 0,0" has a space
Warning: constraint name "precedence between 0,0 to 0,1 if x_[0,0,0,1,3]=0, i.e. 0,1 before 0,0" has a space
Warning: default constraint names used to write mps file
